Route #1: 1 7 28 2 23 29 32 27 9 23 1 
Route #2: 1 38 16 34 40 16 20 16 11 1 
Route #3: 1 18 5 15 25 8 24 15 26 14 19 1 
Route #4: 1 23 4 37 36 21 3 30 22 17 12 1 
Route #5: 1 13 6 39 3 35 31 10 3 33 1 
Cost 632.0
